NAME : local_6
TYPE : ATSP
DIMENSION : 9
EDGE_WEIGHT_TYPE : EXPLICIT
EDGE_WEIGHT_FORMAT : FULL_MATRIX
EDGE_WEIGHT_SECTION
0 574 779 10000000 500 1262 10000000 984 1073 
0 0 846 10000000 458 10000000 10000000 803 10000000 
0 846 0 10000000 397 10000000 10000000 432 10000000 
0 10000000 10000000 0 10000000 255 639 10000000 525 
0 458 397 10000000 0 10000000 10000000 522 1068 
0 10000000 10000000 255 10000000 0 871 10000000 556 
0 10000000 10000000 639 10000000 871 0 10000000 657 
0 803 432 10000000 522 10000000 10000000 0 10000000 
0 10000000 10000000 10000000 10000000 10000000 10000000 10000000 0 
EOF